0
1,21
1,12
16,41
1,19
26,32,38
1,6
18,39
10,54
3
36,38,45
5
6
0,5,27
7
26,29
1,28
8
11,42
9
10
17,32
12
9,42
13
11
14
17
19
20
21
42,53
22
15,54,56
25
27
4,34
1,30
2,14
28
1,8
31
1,7
1,22
35
0,5,55
37
1,58
40
42,55
43
1,52
44,51
1,23
1,53
1,49
47
42,50
11,24
48
1,47
49
1,43
42,57
50
52
53
33,46
0,5,37
55
30
57
24,53
58
